NAME: A-n7-f3
COMMENT : -
TYPE : GVRP
DIMENSION : 9
EDGE_WEIGHT_TYPE : EUC_2D
CAPACITY : 100
AUTONOMY : 392
TIME LIMIT : 11
SPEED : 40.0
FUEL CONSUMPTION : 1.0
DEPOT_COORD_SECTION
0 82 76
CUSTOMER_COORD_SECTION
1 29 89 19 0.293983826767507
2 58 30 21 0.08331312785337053
3 5 10 6 0.838193842587954
4 50 93 19 0.8157139558265422
5 57 69 7 0.36000729415742794
6 23 15 12 0.010333995147956743
AFS_COORD_SECTION
7 22 22 0.9886426100631769
8 42 91 0.6188903826975095
9 13 69 0.9748511037176028
EOF